c ind 137 14 15 18 19 22 233 234 253 254 0
c ind 256 257 259 260 262 263 265 266 268 269 0
c ind 271 272 274 275 277 278 280 281 283 284 0
c ind 286 287 289 290 292 293 295 296 298 299 0
c ind 39 40 42 43 45 452 46 462 471 473 0
c ind 475 477 48 484 486 488 49 490 51 510 0
c ind 52 522 54 55 555 57 575 58 580 584 0
c ind 60 602 606 61 628 63 639 64 642 644 0
c ind 66 67 69 70 72 73 75 76 78 79 0
c ind 8 81 82 84 85 9 0
p cnf 644 2056
-1 2 0
-1 640 0
-10 -11 20 0
-10 11 23 0
-100 101 0
-100 110 0
-101 102 0
-101 109 0
-102 103 0
-102 108 0
-103 104 0
-103 107 0
-104 105 0
-104 106 0
-105 -22 40 0
-105 -40 22 0
-106 -22 43 0
-106 -43 22 0
-107 -22 46 0
-107 -46 22 0
-108 -22 49 0
-108 -49 22 0
-109 -22 52 0
-109 -52 22 0
-11 12 16 0
-110 -22 55 0
-110 -55 22 0
-111 -22 58 0
-111 -58 22 0
-112 -22 61 0
-112 -61 22 0
-113 -22 64 0
-113 -64 22 0
-114 -22 67 0
-114 -67 22 0
-115 -22 70 0
-115 -70 22 0
-116 -22 73 0
-116 -73 22 0
-117 -22 76 0
-117 -76 22 0
-118 -22 79 0
-118 -79 22 0
-119 -22 82 0
-119 -82 22 0
-12 -13 0
-120 -22 85 0
-120 -85 22 0
-121 122 0
-121 152 0
-122 123 0
-122 151 0
-123 124 0
-123 150 0
-124 125 0
-124 149 0
-125 126 0
-125 148 0
-126 127 0
-126 147 0
-127 128 0
-127 146 0
-128 129 0
-128 145 0
-129 130 0
-129 144 0
-13 -14 15 0
-13 -15 14 0
-130 131 0
-130 143 0
-131 132 0
-131 142 0
-132 133 0
-132 141 0
-133 134 0
-133 140 0
-134 135 0
-134 139 0
-135 136 0
-135 138 0
-136 -137 39 0
-136 -39 137 0
-137 0
-138 -137 42 0
-138 -42 137 0
-139 -137 45 0
-139 -45 137 0
-140 -137 48 0
-140 -48 137 0
-141 -137 51 0
-141 -51 137 0
-142 -137 54 0
-142 -54 137 0
-143 -137 57 0
-143 -57 137 0
-144 -137 60 0
-144 -60 137 0
-145 -137 63 0
-145 -63 137 0
-146 -137 66 0
-146 -66 137 0
-147 -137 69 0
-147 -69 137 0
-148 -137 72 0
-148 -72 137 0
-149 -137 75 0
-149 -75 137 0
-150 -137 78 0
-150 -78 137 0
-151 -137 81 0
-151 -81 137 0
-152 -137 84 0
-152 -84 137 0
-153 154 0
-153 227 0
-154 155 0
-154 223 0
-155 156 0
-155 219 0
-156 157 0
-156 215 0
-157 158 0
-157 211 0
-158 159 0
-158 207 0
-159 160 0
-159 203 0
-16 -17 0
-160 161 0
-160 199 0
-161 162 0
-161 195 0
-162 163 0
-162 191 0
-163 164 0
-163 187 0
-164 165 0
-164 183 0
-165 166 0
-165 179 0
-166 167 0
-166 175 0
-167 168 0
-167 171 0
-168 -169 39 0
-168 -39 169 0
-169 -170 -137 0
-169 170 137 0
-17 -18 19 0
-17 -19 18 0
-170 -40 -22 0
-170 40 22 0
-171 -172 42 0
-171 -42 172 0
-172 -173 -174 0
-172 173 174 0
-173 -43 -137 0
-173 43 137 0
-174 40 137 0
-175 -176 45 0
-175 -45 176 0
-176 -177 -178 0
-176 177 178 0
-177 -46 -137 0
-177 46 137 0
-178 174 0
-178 43 0
-179 -180 48 0
-179 -48 180 0
-180 -181 -182 0
-180 181 182 0
-181 -49 -137 0
-181 49 137 0
-182 178 0
-182 46 0
-183 -184 51 0
-183 -51 184 0
-184 -185 -186 0
-184 185 186 0
-185 -52 -137 0
-185 52 137 0
-186 182 0
-186 49 0
-187 -188 54 0
-187 -54 188 0
-188 -189 -190 0
-188 189 190 0
-189 -55 -137 0
-189 55 137 0
-190 186 0
-190 52 0
-191 -192 57 0
-191 -57 192 0
-192 -193 -194 0
-192 193 194 0
-193 -58 -137 0
-193 58 137 0
-194 190 0
-194 55 0
-195 -196 60 0
-195 -60 196 0
-196 -197 -198 0
-196 197 198 0
-197 -61 -137 0
-197 61 137 0
-198 194 0
-198 58 0
-199 -200 63 0
-199 -63 200 0
-2 3 0
-2 621 0
-20 -21 23 0
-20 21 86 0
-200 -201 -202 0
-200 201 202 0
-201 -64 -137 0
-201 64 137 0
-202 198 0
-202 61 0
-203 -204 66 0
-203 -66 204 0
-204 -205 -206 0
-204 205 206 0
-205 -67 -137 0
-205 67 137 0
-206 202 0
-206 64 0
-207 -208 69 0
-207 -69 208 0
-208 -209 -210 0
-208 209 210 0
-209 -70 -137 0
-209 70 137 0
-21 -18 22 0
-21 -22 18 0
-210 206 0
-210 67 0
-211 -212 72 0
-211 -72 212 0
-212 -213 -214 0
-212 213 214 0
-213 -73 -137 0
-213 73 137 0
-214 210 0
-214 70 0
-215 -216 75 0
-215 -75 216 0
-216 -217 -218 0
-216 217 218 0
-217 -76 -137 0
-217 76 137 0
-218 214 0
-218 73 0
-219 -220 78 0
-219 -78 220 0
-220 -221 -222 0
-220 221 222 0
-221 -79 -137 0
-221 79 137 0
-222 218 0
-222 76 0
-223 -224 81 0
-223 -81 224 0
-224 -225 -226 0
-224 225 226 0
-225 -82 -137 0
-225 82 137 0
-226 222 0
-226 79 0
-227 -228 84 0
-227 -84 228 0
-228 -229 -230 0
-228 229 230 0
-229 -85 -137 0
-229 85 137 0
-23 24 0
-23 83 0
-230 226 0
-230 82 0
-231 232 0
-231 235 0
-232 -233 234 0
-232 -234 233 0
-235 -11 236 0
-235 11 237 0
-236 -21 237 0
-236 21 300 0
-237 238 0
-237 297 0
-238 239 0
-238 294 0
-239 240 0
-239 291 0
-24 25 0
-24 80 0
-240 241 0
-240 288 0
-241 242 0
-241 285 0
-242 243 0
-242 282 0
-243 244 0
-243 279 0
-244 245 0
-244 276 0
-245 246 0
-245 273 0
-246 247 0
-246 270 0
-247 248 0
-247 267 0
-248 249 0
-248 264 0
-249 250 0
-249 261 0
-25 26 0
-25 77 0
-250 251 0
-250 258 0
-251 252 0
-251 255 0
-252 -253 254 0
-252 -254 253 0
-255 -256 257 0
-255 -257 256 0
-258 -259 260 0
-258 -260 259 0
-26 27 0
-26 74 0
-261 -262 263 0
-261 -263 262 0
-264 -265 266 0
-264 -266 265 0
-267 -268 269 0
-267 -269 268 0
-27 28 0
-27 71 0
-270 -271 272 0
-270 -272 271 0
-273 -274 275 0
-273 -275 274 0
-276 -277 278 0
-276 -278 277 0
-279 -280 281 0
-279 -281 280 0
-28 29 0
-28 68 0
-282 -283 284 0
-282 -284 283 0
-285 -286 287 0
-285 -287 286 0
-288 -289 290 0
-288 -290 289 0
-29 30 0
-29 65 0
-291 -292 293 0
-291 -293 292 0
-294 -295 296 0
-294 -296 295 0
-297 -298 299 0
-297 -299 298 0
-3 4 0
-3 576 0
-30 31 0
-30 62 0
-300 -87 301 0
-300 87 237 0
-301 -302 333 0
-301 302 364 0
-302 303 0
-302 332 0
-303 304 0
-303 331 0
-304 305 0
-304 330 0
-305 306 0
-305 329 0
-306 307 0
-306 328 0
-307 308 0
-307 327 0
-308 309 0
-308 326 0
-309 310 0
-309 325 0
-31 32 0
-31 59 0
-310 311 0
-310 324 0
-311 312 0
-311 323 0
-312 313 0
-312 322 0
-313 314 0
-313 321 0
-314 315 0
-314 320 0
-315 316 0
-315 319 0
-316 317 0
-316 318 0
-317 -22 254 0
-317 -254 22 0
-318 -22 257 0
-318 -257 22 0
-319 -22 260 0
-319 -260 22 0
-32 33 0
-32 56 0
-320 -22 263 0
-320 -263 22 0
-321 -22 266 0
-321 -266 22 0
-322 -22 269 0
-322 -269 22 0
-323 -22 272 0
-323 -272 22 0
-324 -22 275 0
-324 -275 22 0
-325 -22 278 0
-325 -278 22 0
-326 -22 281 0
-326 -281 22 0
-327 -22 284 0
-327 -284 22 0
-328 -22 287 0
-328 -287 22 0
-329 -22 290 0
-329 -290 22 0
-33 34 0
-33 53 0
-330 -22 293 0
-330 -293 22 0
-331 -22 296 0
-331 -296 22 0
-332 -22 299 0
-332 -299 22 0
-333 334 0
-333 363 0
-334 335 0
-334 362 0
-335 336 0
-335 361 0
-336 337 0
-336 360 0
-337 338 0
-337 359 0
-338 339 0
-338 358 0
-339 340 0
-339 357 0
-34 35 0
-34 50 0
-340 341 0
-340 356 0
-341 342 0
-341 355 0
-342 343 0
-342 354 0
-343 344 0
-343 353 0
-344 345 0
-344 352 0
-345 346 0
-345 351 0
-346 347 0
-346 350 0
-347 348 0
-347 349 0
-348 -137 253 0
-348 -253 137 0
-349 -137 256 0
-349 -256 137 0
-35 36 0
-35 47 0
-350 -137 259 0
-350 -259 137 0
-351 -137 262 0
-351 -262 137 0
-352 -137 265 0
-352 -265 137 0
-353 -137 268 0
-353 -268 137 0
-354 -137 271 0
-354 -271 137 0
-355 -137 274 0
-355 -274 137 0
-356 -137 277 0
-356 -277 137 0
-357 -137 280 0
-357 -280 137 0
-358 -137 283 0
-358 -283 137 0
-359 -137 286 0
-359 -286 137 0
-36 37 0
-36 44 0
-360 -137 289 0
-360 -289 137 0
-361 -137 292 0
-361 -292 137 0
-362 -137 295 0
-362 -295 137 0
-363 -137 298 0
-363 -298 137 0
-364 365 0
-364 438 0
-365 366 0
-365 434 0
-366 367 0
-366 430 0
-367 368 0
-367 426 0
-368 369 0
-368 422 0
-369 370 0
-369 418 0
-37 38 0
-37 41 0
-370 371 0
-370 414 0
-371 372 0
-371 410 0
-372 373 0
-372 406 0
-373 374 0
-373 402 0
-374 375 0
-374 398 0
-375 376 0
-375 394 0
-376 377 0
-376 390 0
-377 378 0
-377 386 0
-378 379 0
-378 382 0
-379 -253 380 0
-379 -380 253 0
-38 -39 40 0
-38 -40 39 0
-380 -381 -137 0
-380 381 137 0
-381 -254 -22 0
-381 254 22 0
-382 -256 383 0
-382 -383 256 0
-383 -384 -385 0
-383 384 385 0
-384 -257 -137 0
-384 257 137 0
-385 254 137 0
-386 -259 387 0
-386 -387 259 0
-387 -388 -389 0
-387 388 389 0
-388 -260 -137 0
-388 260 137 0
-389 257 0
-389 385 0
-390 -262 391 0
-390 -391 262 0
-391 -392 -393 0
-391 392 393 0
-392 -263 -137 0
-392 263 137 0
-393 260 0
-393 389 0
-394 -265 395 0
-394 -395 265 0
-395 -396 -397 0
-395 396 397 0
-396 -266 -137 0
-396 266 137 0
-397 263 0
-397 393 0
-398 -268 399 0
-398 -399 268 0
-399 -400 -401 0
-399 400 401 0
-4 442 0
-4 5 0
-400 -269 -137 0
-400 269 137 0
-401 266 0
-401 397 0
-402 -271 403 0
-402 -403 271 0
-403 -404 -405 0
-403 404 405 0
-404 -272 -137 0
-404 272 137 0
-405 269 0
-405 401 0
-406 -274 407 0
-406 -407 274 0
-407 -408 -409 0
-407 408 409 0
-408 -275 -137 0
-408 275 137 0
-409 272 0
-409 405 0
-41 -42 43 0
-41 -43 42 0
-410 -277 411 0
-410 -411 277 0
-411 -412 -413 0
-411 412 413 0
-412 -278 -137 0
-412 278 137 0
-413 275 0
-413 409 0
-414 -280 415 0
-414 -415 280 0
-415 -416 -417 0
-415 416 417 0
-416 -281 -137 0
-416 281 137 0
-417 278 0
-417 413 0
-418 -283 419 0
-418 -419 283 0
-419 -420 -421 0
-419 420 421 0
-420 -284 -137 0
-420 284 137 0
-421 281 0
-421 417 0
-422 -286 423 0
-422 -423 286 0
-423 -424 -425 0
-423 424 425 0
-424 -287 -137 0
-424 287 137 0
-425 284 0
-425 421 0
-426 -289 427 0
-426 -427 289 0
-427 -428 -429 0
-427 428 429 0
-428 -290 -137 0
-428 290 137 0
-429 287 0
-429 425 0
-430 -292 431 0
-430 -431 292 0
-431 -432 -433 0
-431 432 433 0
-432 -293 -137 0
-432 293 137 0
-433 290 0
-433 429 0
-434 -295 435 0
-434 -435 295 0
-435 -436 -437 0
-435 436 437 0
-436 -296 -137 0
-436 296 137 0
-437 293 0
-437 433 0
-438 -298 439 0
-438 -439 298 0
-439 -440 -441 0
-439 440 441 0
-44 -45 46 0
-44 -46 45 0
-440 -299 -137 0
-440 299 137 0
-441 296 0
-441 437 0
-442 443 0
-442 464 0
-443 444 0
-443 454 0
-444 -11 445 0
-444 11 453 0
-445 -21 446 0
-445 21 447 0
-446 -22 9 0
-446 -9 22 0
-447 -87 448 0
-447 87 453 0
-448 -90 449 0
-448 90 453 0
-449 -450 9 0
-449 -9 450 0
-450 -451 -137 0
-450 451 137 0
-451 -452 -22 0
-451 452 22 0
-453 -452 9 0
-453 -9 452 0
-454 -11 455 0
-454 11 463 0
-455 -21 456 0
-455 21 457 0
-456 -137 234 0
-456 -234 137 0
-457 -87 458 0
-457 87 463 0
-458 -302 459 0
-458 302 463 0
-459 -234 460 0
-459 -460 234 0
-460 -461 -137 0
-460 461 137 0
-461 -462 -22 0
-461 462 22 0
-463 -234 462 0
-463 -462 234 0
-464 -11 465 0
-464 11 496 0
-465 -466 467 0
-465 466 478 0
-466 -137 18 0
-466 -18 137 0
-467 468 0
-467 476 0
-468 469 0
-468 474 0
-469 470 0
-469 472 0
-47 -48 49 0
-47 -49 48 0
-470 -137 471 0
-470 -471 137 0
-472 -137 473 0
-472 -473 137 0
-474 -137 475 0
-474 -475 137 0
-476 -137 477 0
-476 -477 137 0
-478 -87 479 0
-478 87 496 0
-479 -480 491 0
-479 480 503 0
-480 481 0
-480 489 0
-481 482 0
-481 487 0
-482 483 0
-482 485 0
-483 -137 484 0
-483 -484 137 0
-485 -137 486 0
-485 -486 137 0
-487 -137 488 0
-487 -488 137 0
-489 -137 490 0
-489 -490 137 0
-491 -21 492 0
-491 21 496 0
-492 476 0
-492 493 0
-493 474 0
-493 494 0
-494 472 0
-494 495 0
-495 -22 471 0
-495 -471 22 0
-496 497 0
-496 502 0
-497 498 0
-497 501 0
-498 499 0
-498 500 0
-499 -471 484 0
-499 -484 471 0
-5 231 0
-5 6 0
-50 -51 52 0
-50 -52 51 0
-500 -473 486 0
-500 -486 473 0
-501 -475 488 0
-501 -488 475 0
-502 -477 490 0
-502 -490 477 0
-503 -504 508 0
-503 504 515 0
-504 489 0
-504 505 0
-505 487 0
-505 506 0
-506 485 0
-506 507 0
-507 -22 484 0
-507 -484 22 0
-508 -509 511 0
-508 509 492 0
-509 -22 510 0
-509 -510 22 0
-511 476 0
-511 512 0
-512 474 0
-512 513 0
-513 470 0
-513 514 0
-514 -22 473 0
-514 -473 22 0
-515 -516 520 0
-515 516 526 0
-516 489 0
-516 517 0
-517 487 0
-517 518 0
-518 483 0
-518 519 0
-519 -22 486 0
-519 -486 22 0
-520 -521 523 0
-520 521 496 0
-521 -137 522 0
-521 -522 137 0
-523 476 0
-523 524 0
-524 474 0
-524 525 0
-525 495 0
-525 514 0
-526 -527 530 0
-526 527 535 0
-527 489 0
-527 528 0
-528 487 0
-528 529 0
-529 507 0
-529 519 0
-53 -54 55 0
-53 -55 54 0
-530 -531 532 0
-530 531 523 0
-531 -22 522 0
-531 -522 22 0
-532 476 0
-532 533 0
-533 469 0
-533 534 0
-534 -22 475 0
-534 -475 22 0
-535 -536 539 0
-535 536 543 0
-536 489 0
-536 537 0
-537 482 0
-537 538 0
-538 -22 488 0
-538 -488 22 0
-539 -540 541 0
-539 540 496 0
-540 -137 452 0
-540 -452 137 0
-541 476 0
-541 542 0
-542 494 0
-542 534 0
-543 -544 546 0
-543 544 550 0
-544 489 0
-544 545 0
-545 506 0
-545 538 0
-546 -547 548 0
-546 547 496 0
-547 -22 452 0
-547 -452 22 0
-548 476 0
-548 549 0
-549 513 0
-549 534 0
-550 -551 553 0
-550 551 558 0
-551 489 0
-551 552 0
-552 518 0
-552 538 0
-553 -554 556 0
-553 554 496 0
-554 -22 555 0
-554 -555 22 0
-556 476 0
-556 557 0
-557 525 0
-557 534 0
-558 -559 561 0
-558 559 565 0
-559 489 0
-559 560 0
-56 -57 58 0
-56 -58 57 0
-560 529 0
-560 538 0
-561 -562 563 0
-561 562 496 0
-562 -137 462 0
-562 -462 137 0
-563 468 0
-563 564 0
-564 -22 477 0
-564 -477 22 0
-565 -566 568 0
-565 566 571 0
-566 481 0
-566 567 0
-567 -22 490 0
-567 -490 22 0
-568 -569 570 0
-568 569 496 0
-569 -22 462 0
-569 -462 22 0
-570 493 0
-570 564 0
-571 -572 573 0
-571 572 496 0
-572 505 0
-572 567 0
-573 -574 511 0
-573 574 496 0
-574 -22 575 0
-574 -575 22 0
-576 577 0
-576 599 0
-577 -11 578 0
-577 11 583 0
-578 -466 579 0
-578 466 581 0
-579 -22 580 0
-579 -580 22 0
-581 -87 582 0
-581 87 583 0
-582 -480 583 0
-582 480 585 0
-583 -580 584 0
-583 -584 580 0
-585 -504 586 0
-585 504 588 0
-586 -509 583 0
-586 509 587 0
-587 -137 580 0
-587 -580 137 0
-588 -516 583 0
-588 516 589 0
-589 -527 583 0
-589 527 590 0
-59 -60 61 0
-59 -61 60 0
-590 -536 583 0
-590 536 591 0
-591 -544 592 0
-591 544 593 0
-592 -547 579 0
-592 547 583 0
-593 -551 583 0
-593 551 594 0
-594 -559 583 0
-594 559 595 0
-595 -566 596 0
-595 566 597 0
-596 -569 587 0
-596 569 583 0
-597 -572 598 0
-597 572 583 0
-598 -574 587 0
-598 574 583 0
-599 -11 600 0
-599 11 605 0
-6 10 0
-6 7 0
-600 -466 601 0
-600 466 603 0
-601 -22 602 0
-601 -602 22 0
-603 -87 604 0
-603 87 605 0
-604 -480 605 0
-604 480 607 0
-605 -602 606 0
-605 -606 602 0
-607 -504 608 0
-607 504 610 0
-608 -509 605 0
-608 509 609 0
-609 -137 602 0
-609 -602 137 0
-610 -516 605 0
-610 516 611 0
-611 -527 605 0
-611 527 612 0
-612 -536 605 0
-612 536 613 0
-613 -544 614 0
-613 544 615 0
-614 -547 609 0
-614 547 605 0
-615 -551 605 0
-615 551 616 0
-616 -559 605 0
-616 559 617 0
-617 -566 618 0
-617 566 619 0
-618 -569 601 0
-618 569 605 0
-619 -572 620 0
-619 572 605 0
-62 -63 64 0
-62 -64 63 0
-620 -574 609 0
-620 574 605 0
-621 -12 622 0
-621 12 638 0
-622 -87 623 0
-622 87 638 0
-623 -624 627 0
-623 624 629 0
-624 625 0
-624 626 0
-625 -22 584 0
-625 -584 22 0
-626 -137 606 0
-626 -606 137 0
-627 -452 628 0
-627 -628 452 0
-629 -630 633 0
-629 630 634 0
-630 631 0
-630 632 0
-631 -137 584 0
-631 -584 137 0
-632 -22 606 0
-632 -606 22 0
-633 -462 628 0
-633 -628 462 0
-634 -635 636 0
-634 635 637 0
-635 625 0
-635 632 0
-636 -137 628 0
-636 -628 137 0
-637 -522 628 0
-637 -628 522 0
-638 -628 639 0
-638 -639 628 0
-640 641 0
-640 643 0
-641 -452 642 0
-641 -642 452 0
-643 -462 644 0
-643 -644 462 0
-65 -66 67 0
-65 -67 66 0
-68 -69 70 0
-68 -70 69 0
-7 -8 9 0
-7 -9 8 0
-71 -72 73 0
-71 -73 72 0
-74 -75 76 0
-74 -76 75 0
-77 -78 79 0
-77 -79 78 0
-80 -81 82 0
-80 -82 81 0
-83 -84 85 0
-83 -85 84 0
-86 -87 89 0
-86 87 23 0
-87 12 0
-87 88 0
-88 -14 22 0
-88 -22 14 0
-89 -90 121 0
-89 90 153 0
-90 120 0
-90 91 0
-91 119 0
-91 92 0
-92 118 0
-92 93 0
-93 117 0
-93 94 0
-94 116 0
-94 95 0
-95 115 0
-95 96 0
-96 114 0
-96 97 0
-97 113 0
-97 98 0
-98 112 0
-98 99 0
-99 100 0
-99 111 0
1 -2 -640 0
1 0
10 -11 -20 0
10 -20 -23 0
10 11 -23 0
100 -101 -110 0
101 -102 -109 0
102 -103 -108 0
103 -104 -107 0
104 -105 -106 0
105 -40 -22 0
105 40 22 0
106 -43 -22 0
106 43 22 0
107 -46 -22 0
107 46 22 0
108 -49 -22 0
108 49 22 0
109 -52 -22 0
109 52 22 0
11 -12 0
11 -16 0
110 -55 -22 0
110 55 22 0
111 -58 -22 0
111 58 22 0
112 -61 -22 0
112 61 22 0
113 -64 -22 0
113 64 22 0
114 -67 -22 0
114 67 22 0
115 -70 -22 0
115 70 22 0
116 -73 -22 0
116 73 22 0
117 -76 -22 0
117 76 22 0
118 -79 -22 0
118 79 22 0
119 -82 -22 0
119 82 22 0
12 13 0
120 -85 -22 0
120 85 22 0
121 -122 -152 0
122 -123 -151 0
123 -124 -150 0
124 -125 -149 0
125 -126 -148 0
126 -127 -147 0
127 -128 -146 0
128 -129 -145 0
129 -130 -144 0
13 -14 -15 0
13 14 15 0
130 -131 -143 0
131 -132 -142 0
132 -133 -141 0
133 -134 -140 0
134 -135 -139 0
135 -136 -138 0
136 -39 -137 0
136 39 137 0
138 -42 -137 0
138 42 137 0
139 -45 -137 0
139 45 137 0
140 -48 -137 0
140 48 137 0
141 -51 -137 0
141 51 137 0
142 -54 -137 0
142 54 137 0
143 -57 -137 0
143 57 137 0
144 -60 -137 0
144 60 137 0
145 -63 -137 0
145 63 137 0
146 -66 -137 0
146 66 137 0
147 -69 -137 0
147 69 137 0
148 -72 -137 0
148 72 137 0
149 -75 -137 0
149 75 137 0
150 -78 -137 0
150 78 137 0
151 -81 -137 0
151 81 137 0
152 -84 -137 0
152 84 137 0
153 -154 -227 0
154 -155 -223 0
155 -156 -219 0
156 -157 -215 0
157 -158 -211 0
158 -159 -207 0
159 -160 -203 0
16 17 0
160 -161 -199 0
161 -162 -195 0
162 -163 -191 0
163 -164 -187 0
164 -165 -183 0
165 -166 -179 0
166 -167 -175 0
167 -168 -171 0
168 -39 -169 0
168 39 169 0
169 -137 170 0
169 -170 137 0
17 -18 -19 0
17 18 19 0
170 -22 40 0
170 -40 22 0
171 -42 -172 0
171 42 172 0
172 -173 174 0
172 -174 173 0
173 -137 43 0
173 -43 137 0
174 -137 0
174 -40 0
175 -45 -176 0
175 45 176 0
176 -177 178 0
176 -178 177 0
177 -137 46 0
177 -46 137 0
178 -43 -174 0
179 -48 -180 0
179 48 180 0
180 -181 182 0
180 -182 181 0
181 -137 49 0
181 -49 137 0
182 -46 -178 0
183 -51 -184 0
183 51 184 0
184 -185 186 0
184 -186 185 0
185 -137 52 0
185 -52 137 0
186 -49 -182 0
187 -54 -188 0
187 54 188 0
188 -189 190 0
188 -190 189 0
189 -137 55 0
189 -55 137 0
190 -52 -186 0
191 -57 -192 0
191 57 192 0
192 -193 194 0
192 -194 193 0
193 -137 58 0
193 -58 137 0
194 -55 -190 0
195 -60 -196 0
195 60 196 0
196 -197 198 0
196 -198 197 0
197 -137 61 0
197 -61 137 0
198 -58 -194 0
199 -63 -200 0
199 63 200 0
2 -3 -621 0
20 -21 -23 0
20 -23 -86 0
20 21 -86 0
200 -201 202 0
200 -202 201 0
201 -137 64 0
201 -64 137 0
202 -61 -198 0
203 -66 -204 0
203 66 204 0
204 -205 206 0
204 -206 205 0
205 -137 67 0
205 -67 137 0
206 -64 -202 0
207 -69 -208 0
207 69 208 0
208 -209 210 0
208 -210 209 0
209 -137 70 0
209 -70 137 0
21 -18 -22 0
21 18 22 0
210 -67 -206 0
211 -72 -212 0
211 72 212 0
212 -213 214 0
212 -214 213 0
213 -137 73 0
213 -73 137 0
214 -70 -210 0
215 -75 -216 0
215 75 216 0
216 -217 218 0
216 -218 217 0
217 -137 76 0
217 -76 137 0
218 -73 -214 0
219 -78 -220 0
219 78 220 0
22 0
220 -221 222 0
220 -222 221 0
221 -137 79 0
221 -79 137 0
222 -76 -218 0
223 -81 -224 0
223 81 224 0
224 -225 226 0
224 -226 225 0
225 -137 82 0
225 -82 137 0
226 -79 -222 0
227 -84 -228 0
227 84 228 0
228 -229 230 0
228 -230 229 0
229 -137 85 0
229 -85 137 0
23 -24 -83 0
230 -82 -226 0
231 -232 -235 0
232 -233 -234 0
232 233 234 0
235 -11 -236 0
235 -236 -237 0
235 11 -237 0
236 -21 -237 0
236 -237 -300 0
236 21 -300 0
237 -238 -297 0
238 -239 -294 0
239 -240 -291 0
24 -25 -80 0
240 -241 -288 0
241 -242 -285 0
242 -243 -282 0
243 -244 -279 0
244 -245 -276 0
245 -246 -273 0
246 -247 -270 0
247 -248 -267 0
248 -249 -264 0
249 -250 -261 0
25 -26 -77 0
250 -251 -258 0
251 -252 -255 0
252 -253 -254 0
252 253 254 0
255 -256 -257 0
255 256 257 0
258 -259 -260 0
258 259 260 0
26 -27 -74 0
261 -262 -263 0
261 262 263 0
264 -265 -266 0
264 265 266 0
267 -268 -269 0
267 268 269 0
27 -28 -71 0
270 -271 -272 0
270 271 272 0
273 -274 -275 0
273 274 275 0
276 -277 -278 0
276 277 278 0
279 -280 -281 0
279 280 281 0
28 -29 -68 0
282 -283 -284 0
282 283 284 0
285 -286 -287 0
285 286 287 0
288 -289 -290 0
288 289 290 0
29 -30 -65 0
291 -292 -293 0
291 292 293 0
294 -295 -296 0
294 295 296 0
297 -298 -299 0
297 298 299 0
3 -4 -576 0
30 -31 -62 0
300 -301 -237 0
300 -87 -301 0
300 87 -237 0
301 -302 -333 0
301 -333 -364 0
301 302 -364 0
302 -303 -332 0
303 -304 -331 0
304 -305 -330 0
305 -306 -329 0
306 -307 -328 0
307 -308 -327 0
308 -309 -326 0
309 -310 -325 0
31 -32 -59 0
310 -311 -324 0
311 -312 -323 0
312 -313 -322 0
313 -314 -321 0
314 -315 -320 0
315 -316 -319 0
316 -317 -318 0
317 -254 -22 0
317 254 22 0
318 -257 -22 0
318 257 22 0
319 -260 -22 0
319 260 22 0
32 -33 -56 0
320 -263 -22 0
320 263 22 0
321 -266 -22 0
321 266 22 0
322 -269 -22 0
322 269 22 0
323 -272 -22 0
323 272 22 0
324 -275 -22 0
324 275 22 0
325 -278 -22 0
325 278 22 0
326 -281 -22 0
326 281 22 0
327 -284 -22 0
327 284 22 0
328 -287 -22 0
328 287 22 0
329 -290 -22 0
329 290 22 0
33 -34 -53 0
330 -293 -22 0
330 293 22 0
331 -296 -22 0
331 296 22 0
332 -299 -22 0
332 299 22 0
333 -334 -363 0
334 -335 -362 0
335 -336 -361 0
336 -337 -360 0
337 -338 -359 0
338 -339 -358 0
339 -340 -357 0
34 -35 -50 0
340 -341 -356 0
341 -342 -355 0
342 -343 -354 0
343 -344 -353 0
344 -345 -352 0
345 -346 -351 0
346 -347 -350 0
347 -348 -349 0
348 -253 -137 0
348 253 137 0
349 -256 -137 0
349 256 137 0
35 -36 -47 0
350 -259 -137 0
350 259 137 0
351 -262 -137 0
351 262 137 0
352 -265 -137 0
352 265 137 0
353 -268 -137 0
353 268 137 0
354 -271 -137 0
354 271 137 0
355 -274 -137 0
355 274 137 0
356 -277 -137 0
356 277 137 0
357 -280 -137 0
357 280 137 0
358 -283 -137 0
358 283 137 0
359 -286 -137 0
359 286 137 0
36 -37 -44 0
360 -289 -137 0
360 289 137 0
361 -292 -137 0
361 292 137 0
362 -295 -137 0
362 295 137 0
363 -298 -137 0
363 298 137 0
364 -365 -438 0
365 -366 -434 0
366 -367 -430 0
367 -368 -426 0
368 -369 -422 0
369 -370 -418 0
37 -38 -41 0
370 -371 -414 0
371 -372 -410 0
372 -373 -406 0
373 -374 -402 0
374 -375 -398 0
375 -376 -394 0
376 -377 -390 0
377 -378 -386 0
378 -379 -382 0
379 -253 -380 0
379 253 380 0
38 -39 -40 0
38 39 40 0
380 -137 381 0
380 -381 137 0
381 -22 254 0
381 -254 22 0
382 -256 -383 0
382 256 383 0
383 -384 385 0
383 -385 384 0
384 -137 257 0
384 -257 137 0
385 -137 0
385 -254 0
386 -259 -387 0
386 259 387 0
387 -388 389 0
387 -389 388 0
388 -137 260 0
388 -260 137 0
389 -257 -385 0
390 -262 -391 0
390 262 391 0
391 -392 393 0
391 -393 392 0
392 -137 263 0
392 -263 137 0
393 -260 -389 0
394 -265 -395 0
394 265 395 0
395 -396 397 0
395 -397 396 0
396 -137 266 0
396 -266 137 0
397 -263 -393 0
398 -268 -399 0
398 268 399 0
399 -400 401 0
399 -401 400 0
4 -5 -442 0
400 -137 269 0
400 -269 137 0
401 -266 -397 0
402 -271 -403 0
402 271 403 0
403 -404 405 0
403 -405 404 0
404 -137 272 0
404 -272 137 0
405 -269 -401 0
406 -274 -407 0
406 274 407 0
407 -408 409 0
407 -409 408 0
408 -137 275 0
408 -275 137 0
409 -272 -405 0
41 -42 -43 0
41 42 43 0
410 -277 -411 0
410 277 411 0
411 -412 413 0
411 -413 412 0
412 -137 278 0
412 -278 137 0
413 -275 -409 0
414 -280 -415 0
414 280 415 0
415 -416 417 0
415 -417 416 0
416 -137 281 0
416 -281 137 0
417 -278 -413 0
418 -283 -419 0
418 283 419 0
419 -420 421 0
419 -421 420 0
420 -137 284 0
420 -284 137 0
421 -281 -417 0
422 -286 -423 0
422 286 423 0
423 -424 425 0
423 -425 424 0
424 -137 287 0
424 -287 137 0
425 -284 -421 0
426 -289 -427 0
426 289 427 0
427 -428 429 0
427 -429 428 0
428 -137 290 0
428 -290 137 0
429 -287 -425 0
430 -292 -431 0
430 292 431 0
431 -432 433 0
431 -433 432 0
432 -137 293 0
432 -293 137 0
433 -290 -429 0
434 -295 -435 0
434 295 435 0
435 -436 437 0
435 -437 436 0
436 -137 296 0
436 -296 137 0
437 -293 -433 0
438 -298 -439 0
438 298 439 0
439 -440 441 0
439 -441 440 0
44 -45 -46 0
44 45 46 0
440 -137 299 0
440 -299 137 0
441 -296 -437 0
442 -443 -464 0
443 -444 -454 0
444 -11 -445 0
444 -445 -453 0
444 11 -453 0
445 -21 -446 0
445 -446 -447 0
445 21 -447 0
446 -9 -22 0
446 9 22 0
447 -448 -453 0
447 -87 -448 0
447 87 -453 0
448 -449 -453 0
448 -90 -449 0
448 90 -453 0
449 -9 -450 0
449 9 450 0
450 -137 451 0
450 -451 137 0
451 -22 452 0
451 -452 22 0
453 -9 -452 0
453 9 452 0
454 -11 -455 0
454 -455 -463 0
454 11 -463 0
455 -21 -456 0
455 -456 -457 0
455 21 -457 0
456 -234 -137 0
456 234 137 0
457 -458 -463 0
457 -87 -458 0
457 87 -463 0
458 -302 -459 0
458 -459 -463 0
458 302 -463 0
459 -234 -460 0
459 234 460 0
460 -137 461 0
460 -461 137 0
461 -22 462 0
461 -462 22 0
463 -234 -462 0
463 234 462 0
464 -11 -465 0
464 -465 -496 0
464 11 -496 0
465 -466 -467 0
465 -467 -478 0
465 466 -478 0
466 -18 -137 0
466 18 137 0
467 -468 -476 0
468 -469 -474 0
469 -470 -472 0
47 -48 -49 0
47 48 49 0
470 -471 -137 0
470 471 137 0
472 -473 -137 0
472 473 137 0
474 -475 -137 0
474 475 137 0
476 -477 -137 0
476 477 137 0
478 -479 -496 0
478 -87 -479 0
478 87 -496 0
479 -480 -491 0
479 -491 -503 0
479 480 -503 0
480 -481 -489 0
481 -482 -487 0
482 -483 -485 0
483 -484 -137 0
483 484 137 0
485 -486 -137 0
485 486 137 0
487 -488 -137 0
487 488 137 0
489 -490 -137 0
489 490 137 0
491 -21 -492 0
491 -492 -496 0
491 21 -496 0
492 -493 -476 0
493 -494 -474 0
494 -495 -472 0
495 -471 -22 0
495 471 22 0
496 -497 -502 0
497 -498 -501 0
498 -499 -500 0
499 -471 -484 0
499 471 484 0
5 -6 -231 0
50 -51 -52 0
50 51 52 0
500 -473 -486 0
500 473 486 0
501 -475 -488 0
501 475 488 0
502 -477 -490 0
502 477 490 0
503 -504 -508 0
503 -508 -515 0
503 504 -515 0
504 -505 -489 0
505 -506 -487 0
506 -507 -485 0
507 -484 -22 0
507 484 22 0
508 -509 -511 0
508 -511 -492 0
508 509 -492 0
509 -510 -22 0
509 510 22 0
511 -512 -476 0
512 -513 -474 0
513 -470 -514 0
514 -473 -22 0
514 473 22 0
515 -516 -520 0
515 -520 -526 0
515 516 -526 0
516 -517 -489 0
517 -518 -487 0
518 -483 -519 0
519 -486 -22 0
519 486 22 0
520 -521 -523 0
520 -523 -496 0
520 521 -496 0
521 -522 -137 0
521 522 137 0
523 -524 -476 0
524 -525 -474 0
525 -495 -514 0
526 -527 -530 0
526 -530 -535 0
526 527 -535 0
527 -528 -489 0
528 -529 -487 0
529 -507 -519 0
53 -54 -55 0
53 54 55 0
530 -531 -532 0
530 -532 -523 0
530 531 -523 0
531 -522 -22 0
531 522 22 0
532 -533 -476 0
533 -469 -534 0
534 -475 -22 0
534 475 22 0
535 -536 -539 0
535 -539 -543 0
535 536 -543 0
536 -537 -489 0
537 -482 -538 0
538 -488 -22 0
538 488 22 0
539 -540 -541 0
539 -541 -496 0
539 540 -496 0
540 -452 -137 0
540 452 137 0
541 -542 -476 0
542 -494 -534 0
543 -544 -546 0
543 -546 -550 0
543 544 -550 0
544 -545 -489 0
545 -506 -538 0
546 -547 -548 0
546 -548 -496 0
546 547 -496 0
547 -452 -22 0
547 452 22 0
548 -549 -476 0
549 -513 -534 0
550 -551 -553 0
550 -553 -558 0
550 551 -558 0
551 -552 -489 0
552 -518 -538 0
553 -554 -556 0
553 -556 -496 0
553 554 -496 0
554 -555 -22 0
554 555 22 0
556 -557 -476 0
557 -525 -534 0
558 -559 -561 0
558 -561 -565 0
558 559 -565 0
559 -560 -489 0
56 -57 -58 0
56 57 58 0
560 -529 -538 0
561 -562 -563 0
561 -563 -496 0
561 562 -496 0
562 -462 -137 0
562 462 137 0
563 -468 -564 0
564 -477 -22 0
564 477 22 0
565 -566 -568 0
565 -568 -571 0
565 566 -571 0
566 -481 -567 0
567 -490 -22 0
567 490 22 0
568 -569 -570 0
568 -570 -496 0
568 569 -496 0
569 -462 -22 0
569 462 22 0
570 -493 -564 0
571 -572 -573 0
571 -573 -496 0
571 572 -496 0
572 -505 -567 0
573 -511 -496 0
573 -574 -511 0
573 574 -496 0
574 -575 -22 0
574 575 22 0
576 -577 -599 0
577 -11 -578 0
577 -578 -583 0
577 11 -583 0
578 -466 -579 0
578 -579 -581 0
578 466 -581 0
579 -580 -22 0
579 580 22 0
581 -582 -583 0
581 -87 -582 0
581 87 -583 0
582 -480 -583 0
582 -583 -585 0
582 480 -585 0
583 -580 -584 0
583 580 584 0
585 -504 -586 0
585 -586 -588 0
585 504 -588 0
586 -509 -583 0
586 -583 -587 0
586 509 -587 0
587 -580 -137 0
587 580 137 0
588 -516 -583 0
588 -583 -589 0
588 516 -589 0
589 -527 -583 0
589 -583 -590 0
589 527 -590 0
59 -60 -61 0
59 60 61 0
590 -536 -583 0
590 -583 -591 0
590 536 -591 0
591 -544 -592 0
591 -592 -593 0
591 544 -593 0
592 -547 -579 0
592 -579 -583 0
592 547 -583 0
593 -551 -583 0
593 -583 -594 0
593 551 -594 0
594 -559 -583 0
594 -583 -595 0
594 559 -595 0
595 -566 -596 0
595 -596 -597 0
595 566 -597 0
596 -569 -587 0
596 -587 -583 0
596 569 -583 0
597 -572 -598 0
597 -598 -583 0
597 572 -583 0
598 -574 -587 0
598 -587 -583 0
598 574 -583 0
599 -11 -600 0
599 -600 -605 0
599 11 -605 0
6 -7 -10 0
600 -466 -601 0
600 -601 -603 0
600 466 -603 0
601 -602 -22 0
601 602 22 0
603 -604 -605 0
603 -87 -604 0
603 87 -605 0
604 -480 -605 0
604 -605 -607 0
604 480 -607 0
605 -602 -606 0
605 602 606 0
607 -504 -608 0
607 -608 -610 0
607 504 -610 0
608 -509 -605 0
608 -605 -609 0
608 509 -609 0
609 -602 -137 0
609 602 137 0
610 -516 -605 0
610 -605 -611 0
610 516 -611 0
611 -527 -605 0
611 -605 -612 0
611 527 -612 0
612 -536 -605 0
612 -605 -613 0
612 536 -613 0
613 -544 -614 0
613 -614 -615 0
613 544 -615 0
614 -547 -609 0
614 -609 -605 0
614 547 -605 0
615 -551 -605 0
615 -605 -616 0
615 551 -616 0
616 -559 -605 0
616 -605 -617 0
616 559 -617 0
617 -566 -618 0
617 -618 -619 0
617 566 -619 0
618 -569 -601 0
618 -601 -605 0
618 569 -605 0
619 -572 -620 0
619 -620 -605 0
619 572 -605 0
62 -63 -64 0
62 63 64 0
620 -574 -609 0
620 -609 -605 0
620 574 -605 0
621 -12 -622 0
621 -622 -638 0
621 12 -638 0
622 -623 -638 0
622 -87 -623 0
622 87 -638 0
623 -624 -627 0
623 -627 -629 0
623 624 -629 0
624 -625 -626 0
625 -584 -22 0
625 584 22 0
626 -606 -137 0
626 606 137 0
627 -628 -452 0
627 628 452 0
629 -630 -633 0
629 -633 -634 0
629 630 -634 0
630 -631 -632 0
631 -584 -137 0
631 584 137 0
632 -606 -22 0
632 606 22 0
633 -628 -462 0
633 628 462 0
634 -635 -636 0
634 -636 -637 0
634 635 -637 0
635 -625 -632 0
636 -628 -137 0
636 628 137 0
637 -628 -522 0
637 628 522 0
638 -628 -639 0
638 628 639 0
640 -641 -643 0
641 -642 -452 0
641 642 452 0
643 -644 -462 0
643 644 462 0
65 -66 -67 0
65 66 67 0
68 -69 -70 0
68 69 70 0
7 -8 -9 0
7 8 9 0
71 -72 -73 0
71 72 73 0
74 -75 -76 0
74 75 76 0
77 -78 -79 0
77 78 79 0
80 -81 -82 0
80 81 82 0
83 -84 -85 0
83 84 85 0
86 -87 -89 0
86 -89 -23 0
86 87 -23 0
87 -12 -88 0
88 -14 -22 0
88 14 22 0
89 -121 -153 0
89 -90 -121 0
89 90 -153 0
90 -91 -120 0
91 -92 -119 0
92 -93 -118 0
93 -94 -117 0
94 -95 -116 0
95 -96 -115 0
96 -97 -114 0
97 -98 -113 0
98 -99 -112 0
99 -100 -111 0
